NAME : mtspf.pid5556.gtsp.132317887.tour
COMMENT : Length = 132317887
COMMENT : Found by LKH [Keld Helsgaun] Fri Jan 24 12:55:33 2025
TYPE : TOUR
DIMENSION : 85
TOUR_SECTION
1
57
54
55
56
60
61
58
59
17
14
15
16
85
82
83
84
3
35
36
37
34
81
78
79
80
50
51
52
53
2
65
62
63
64
75
76
77
74
21
18
19
20
40
41
38
39
69
66
67
68
30
31
32
33
9
6
7
8
5
26
27
28
29
23
24
25
22
4
11
12
13
10
70
71
72
73
43
44
45
42
48
49
46
47
-1
EOF
